50
    1   218   218
    2    95    95
    3   419   419
    4   167   167
    5     5     5
    6   177   177
    7   426   426
    8   321   321
    9    15    15
   10   222   222
   11   464   464
   12   474   474
   13    28    28
   14    22    22
   15   318   318
   16   292   292
   17   260   260
   18   307   307
   19   221   221
   20   163   163
   21   410   410
   22   364   364
   23   458   458
   24   164   164
   25   203   203
   26   220   220
   27    71    71
   28   311   311
   29   267   267
   30     4     4
   31    91    91
   32   197   197
   33   272   272
   34    27    27
   35   307   307
   36   111   111
   37   224   224
   38    59    59
   39    49    49
   40   254   254
   41   164   164
   42   446   446
   43    78    78
   44   272   272
   45   447   447
   46   237   237
   47   257   257
   48   481   481
   49   319   319
   50   446   446
5912
